NAME : instances/clustered-mixed-tsp/instance-31.tsp
COMMENT : No Comment
TYPE : TSP
DIMENSION: 53
EDGE_WEIGHT_TYPE : EUC_2D
NODE_COORD_SECTION
1 412 772 
2 866 787 
3 -22 1009 
4 811 837 
5 18 1039 
6 874 -11 
7 38 994 
8 342 797 
9 794 49 
10 397 842 
11 733 881 
12 68 969 
13 886 792 
14 783 756 
15 -57 984 
16 813 741 
17 23 969 
18 914 -1 
19 3 1009 
20 891 867 
21 33 1044 
22 926 897 
23 843 741 
24 43 994 
25 417 782 
26 743 761 
27 23 949 
28 -12 924 
29 357 762 
30 869 -31 
31 357 872 
32 342 757 
33 68 989 
34 856 927 
35 407 767 
36 836 872 
37 18 994 
38 33 909 
39 891 812 
40 23 919 
41 342 837 
42 68 1019 
43 853 766 
44 758 816 
45 8 949 
46 809 -21 
47 856 877 
48 886 882 
49 901 832 
50 372 837 
51 282 877 
52 806 922 
53 -72 1044 
EOF
